p cnf 1362 2120
1 -2 36 101 0
36 48 -101 102 0
48 72 -102 103 0
72 -73 -103 104 0
-73 90 91 -104 0
4 -11 -79 105 0
4 -11 -79 -105 0
22 -32 -43 -80 0
21 23 41 106 0
41 77 -106 107 0
77 -80 87 -107 0
7 -38 108 109 0
7 -38 108 -109 0
7 -38 -108 109 0
7 -38 -108 -109 0
46 49 -76 82 0
-32 35 -45 96 0
19 20 51 110 0
19 20 51 -110 0
18 24 39 111 0
39 54 -111 112 0
54 61 -66 -112 0
-1 -18 -78 113 0
-1 -18 -78 -113 0
10 15 24 114 0
24 -36 -114 115 0
-36 -77 80 -115 0
-21 -23 32 116 0
32 -38 -116 117 0
-38 -42 -91 -117 0
41 46 -61 118 0
-61 -87 -118 119 0
-87 98 100 -119 0
26 -61 -90 120 0
26 -61 -90 -120 0
15 71 99 121 0
15 71 99 -121 0
-38 -48 -71 122 0
-71 78 -84 -122 0
4 7 -14 123 0
-14 20 -123 124 0
20 72 -76 -124 0
23 37 38 -73 0
-13 -17 45 125 0
45 46 -125 126 0
46 -53 -126 127 0
-53 -58 -64 -127 0
2 19 -32 128 0
-32 39 -128 129 0
39 -40 -129 130 0
-40 -77 -130 131 0
-77 86 -89 -131 0
11 -22 -54 132 0
-54 -60 -132 133 0
-60 -73 100 -133 0
39 46 -47 134 0
-47 85 -95 -134 0
-8 -28 33 135 0
33 -40 -135 136 0
-40 -55 -136 137 0
-55 -59 -137 138 0
-59 -64 -94 -138 0
31 -57 -71 139 0
-71 -75 -139 140 0
-75 -79 89 -140 0
42 49 -60 141 0
-60 -89 91 -141 0
19 -32 -59 142 0
-59 -62 75 -142 0
-24 71 -76 143 0
-76 83 84 -143 0
-2 28 -38 144 0
-38 58 -144 145 0
58 60 -145 146 0
60 73 -146 147 0
73 74 -147 148 0
74 90 -148 149 0
90 94 -100 -149 0
53 66 69 150 0
69 71 -85 -150 0
-1 -42 -65 -71 0
-11 54 55 151 0
55 -61 82 -151 0
13 51 77 152 0
77 -90 -100 -152 0
13 -34 42 153 0
42 64 70 -153 0
-6 -25 38 154 0
38 -79 -86 -154 0
70 -83 155 156 0
70 -83 155 -156 0
70 -83 -155 156 0
70 -83 -155 -156 0
-8 -11 -32 157 0
-32 -44 -157 158 0
-44 68 -158 159 0
68 69 -80 -159 0
10 42 -47 160 0
-47 54 -160 161 0
54 81 -161 162 0
81 -82 -93 -162 0
-19 22 -31 163 0
-31 -34 -163 164 0
-34 -70 -164 165 0
-70 -75 -165 166 0
-75 81 82 -166 0
13 -28 32 90 0
-1 -79 84 167 0
-1 -79 84 -167 0
-3 13 66 168 0
66 -88 -168 169 0
-88 97 -98 -169 0
12 36 -37 170 0
-37 54 -170 171 0
54 55 -171 172 0
55 66 -172 173 0
66 74 -173 174 0
74 -82 -89 -174 0
-6 -50 54 175 0
54 -62 -175 176 0
-62 65 -176 177 0
65 -66 100 -177 0
-7 -11 -23 178 0
-23 -66 -178 179 0
-66 82 100 -179 0
1 85 180 181 0
1 85 180 -181 0
1 85 -180 181 0
1 85 -180 -181 0
47 -60 77 182 0
47 -60 77 -182 0
12 -43 -52 84 0
-56 -58 64 183 0
-56 -58 64 -183 0
20 21 -30 184 0
-30 -53 -184 185 0
-53 -59 94 -185 0
14 31 41 186 0
41 42 -186 187 0
42 -45 -187 188 0
-45 -55 -188 189 0
-55 70 -81 -189 0
-23 26 -32 190 0
-32 35 90 -190 0
-28 44 84 191 0
-28 44 84 -191 0
34 -41 50 192 0
50 -57 -192 193 0
-57 81 90 -193 0
-1 19 194 195 0
-1 19 194 -195 0
-1 19 -194 195 0
-1 19 -194 -195 0
10 -14 -36 196 0
-36 39 -196 197 0
39 45 -197 198 0
45 -52 -198 199 0
-52 -55 -199 200 0
-55 76 -84 -200 0
-3 16 -21 201 0
-21 -37 -201 202 0
-37 40 -202 203 0
40 -43 -73 -203 0
-9 -18 29 204 0
29 -30 -204 205 0
-30 -48 -205 206 0
-48 -88 91 -206 0
36 75 87 207 0
36 75 87 -207 0
40 67 -95 97 0
-4 -30 85 208 0
-4 -30 85 -208 0
-23 38 -75 209 0
-23 38 -75 -209 0
-3 -45 210 211 0
-3 -45 210 -211 0
-3 -45 -210 211 0
-3 -45 -210 -211 0
-13 -22 42 212 0
42 -56 -212 213 0
-56 -68 97 -213 0
-36 -50 56 214 0
56 63 -214 215 0
63 90 -94 -215 0
22 -90 98 216 0
22 -90 98 -216 0
-84 97 217 218 0
-84 97 217 -218 0
-84 97 -217 218 0
-84 97 -217 -218 0
7 -35 51 219 0
51 66 -219 220 0
66 -72 -220 221 0
-72 -82 89 -221 0
14 -15 -37 222 0
-37 61 97 -222 0
-27 -38 -43 223 0
-27 -38 -43 -223 0
-21 -76 224 225 0
-21 -76 224 -225 0
-21 -76 -224 225 0
-21 -76 -224 -225 0
17 -30 -45 226 0
17 -30 -45 -226 0
-1 -19 22 227 0
22 -32 -227 228 0
-32 47 65 -228 0
-29 -41 -47 229 0
-47 70 -229 230 0
70 75 -230 231 0
75 91 93 -231 0
32 72 77 92 0
-10 24 -26 -46 0
32 -33 45 90 0
14 16 -38 232 0
-38 41 -232 233 0
41 43 -64 -233 0
21 -26 54 234 0
54 65 -234 235 0
65 -67 -235 236 0
-67 -71 98 -236 0
-38 42 -59 72 0
16 -26 -64 -99 0
-15 -24 30 237 0
30 -84 -96 -237 0
24 26 79 238 0
24 26 79 -238 0
34 47 -67 239 0
-67 -76 -239 240 0
-76 -83 -240 241 0
-83 87 -100 -241 0
-9 -38 -49 242 0
-49 -66 -242 243 0
-66 69 -84 -243 0
-27 -59 244 245 0
-27 -59 244 -245 0
-27 -59 -244 245 0
-27 -59 -244 -245 0
-7 18 -60 246 0
-60 80 -246 247 0
80 -85 88 -247 0
-6 11 -24 248 0
-24 42 -248 249 0
42 -52 -249 250 0
-52 56 -250 251 0
56 59 -251 252 0
59 -61 -252 253 0
-61 -70 -96 -253 0
45 50 57 254 0
45 50 57 -254 0
51 89 255 256 0
51 89 255 -256 0
51 89 -255 256 0
51 89 -255 -256 0
-17 -54 64 257 0
64 82 -257 258 0
82 89 90 -258 0
33 41 44 259 0
44 51 -259 260 0
51 -84 -260 261 0
-84 87 -100 -261 0
15 -21 -38 262 0
-38 -40 -79 -262 0
24 -41 -46 263 0
-46 49 -263 264 0
49 63 -264 265 0
63 -74 96 -265 0
-14 32 35 266 0
35 41 -57 -266 0
-19 -48 -74 89 0
-4 39 -41 267 0
-41 74 85 -267 0
27 48 49 90 0
29 44 56 268 0
56 78 87 -268 0
43 -46 88 269 0
43 -46 88 -269 0
11 -28 -72 -76 0
-7 -11 -23 80 0
-2 4 -5 270 0
-5 15 -270 271 0
15 -19 -271 272 0
-19 -22 -272 273 0
-22 26 -273 274 0
26 -62 84 -274 0
25 49 52 275 0
52 55 -58 -275 0
64 -75 -86 276 0
64 -75 -86 -276 0
1 -13 15 277 0
15 19 -277 278 0
19 65 -278 279 0
65 83 -88 -279 0
20 24 36 280 0
36 -53 -280 281 0
-53 -92 97 -281 0
-37 -56 73 -98 0
-17 66 76 -85 0
1 62 66 -69 0
1 3 -17 -33 0
-13 66 -81 282 0
-81 92 98 -282 0
-40 -45 -52 283 0
-52 -71 -283 284 0
-71 -95 -100 -284 0
-15 77 82 285 0
82 -85 -98 -285 0
4 66 -68 286 0
-68 -71 -92 -286 0
23 47 -57 287 0
23 47 -57 -287 0
-13 51 59 288 0
-13 51 59 -288 0
11 97 98 289 0
11 97 98 -289 0
65 -74 95 290 0
65 -74 95 -290 0
-9 56 -68 291 0
-68 72 -291 292 0
72 74 -292 293 0
74 -77 85 -293 0
-31 66 72 294 0
-31 66 72 -294 0
-2 -6 33 -57 0
-35 -45 56 295 0
56 57 -98 -295 0
-9 16 21 296 0
21 -26 -296 297 0
-26 36 -297 298 0
36 -57 70 -298 0
1 10 53 299 0
53 87 -92 -299 0
-6 26 73 300 0
73 -75 -300 301 0
-75 -80 -301 302 0
-80 84 90 -302 0
27 44 -62 303 0
-62 -75 -303 304 0
-75 79 -304 305 0
79 91 -305 306 0
91 -94 100 -306 0
-12 -32 -35 -51 0
-29 -38 -58 307 0
-29 -38 -58 -307 0
17 28 -29 308 0
-29 -39 -308 309 0
-39 -42 -309 310 0
-42 45 -310 311 0
45 -53 -311 312 0
-53 -55 -99 -312 0
-12 27 49 313 0
49 -72 -76 -313 0
10 -20 -28 314 0
-28 -33 -314 315 0
-33 -65 78 -315 0
-3 -56 -58 82 0
-11 15 -67 316 0
-67 -70 -95 -316 0
7 12 71 317 0
7 12 71 -317 0
-19 -59 84 318 0
-19 -59 84 -318 0
31 65 -79 319 0
-79 -94 99 -319 0
11 12 -24 320 0
-24 -54 -320 321 0
-54 -66 83 -321 0
8 11 13 322 0
13 45 -322 323 0
45 83 -89 -323 0
17 20 21 324 0
21 -53 -324 325 0
-53 55 -325 326 0
55 -75 -326 327 0
-75 79 -94 -327 0
7 -77 97 328 0
7 -77 97 -328 0
5 -51 71 -85 0
-10 13 -62 94 0
26 -78 329 330 0
26 -78 329 -330 0
26 -78 -329 330 0
26 -78 -329 -330 0
2 4 6 331 0
6 41 -331 332 0
41 -50 -332 333 0
-50 53 -333 334 0
53 73 74 -334 0
5 -47 83 335 0
5 -47 83 -335 0
-1 100 336 337 0
-1 100 336 -337 0
-1 100 -336 337 0
-1 100 -336 -337 0
29 -38 -50 338 0
-50 -78 -91 -338 0
-2 61 72 339 0
-2 61 72 -339 0
-11 20 30 340 0
30 -60 66 -340 0
56 75 76 341 0
56 75 76 -341 0
-32 -52 63 342 0
63 -68 -342 343 0
-68 -87 -343 344 0
-87 89 -344 345 0
89 94 -100 -345 0
34 97 -99 346 0
34 97 -99 -346 0
-4 -26 -36 347 0
-36 79 -347 348 0
79 81 -348 349 0
81 -96 98 -349 0
-22 -37 350 351 0
-22 -37 350 -351 0
-22 -37 -350 351 0
-22 -37 -350 -351 0
16 55 -99 352 0
16 55 -99 -352 0
-81 -94 353 354 0
-81 -94 353 -354 0
-81 -94 -353 354 0
-81 -94 -353 -354 0
-13 -15 -38 355 0
-38 40 -41 -355 0
19 57 -58 356 0
-58 -72 82 -356 0
31 58 67 357 0
67 -79 -83 -357 0
52 -55 -100 358 0
52 -55 -100 -358 0
42 53 64 359 0
64 67 96 -359 0
21 -35 39 360 0
39 -50 -55 -360 0
4 -11 -20 361 0
-20 -37 -42 -361 0
4 60 61 362 0
61 -77 -362 363 0
-77 81 83 -363 0
6 7 -22 364 0
-22 -25 -364 365 0
-25 52 89 -365 0
9 -24 -33 366 0
-33 -70 -95 -366 0
-5 17 -18 367 0
-18 84 87 -367 0
-9 11 12 368 0
12 -14 -368 369 0
-14 16 -369 370 0
16 17 -370 371 0
17 -19 -371 372 0
-19 -24 84 -372 0
-4 70 -76 -88 0
-62 83 373 374 0
-62 83 373 -374 0
-62 83 -373 374 0
-62 83 -373 -374 0
-13 -22 34 375 0
34 45 -63 -375 0
-47 55 56 376 0
56 75 90 -376 0
8 -26 61 -97 0
-40 45 62 -90 0
-10 -18 46 377 0
46 83 100 -377 0
-37 43 65 378 0
65 79 -94 -378 0
94 -98 379 380 0
94 -98 379 -380 0
94 -98 -379 380 0
94 -98 -379 -380 0
-9 20 -59 -66 0
-32 -37 84 98 0
1 -15 -18 381 0
-18 28 -381 382 0
28 54 86 -382 0
3 67 74 383 0
74 83 -383 384 0
83 85 90 -384 0
-21 -30 41 385 0
41 42 -385 386 0
42 49 -386 387 0
49 -59 -387 388 0
-59 -86 94 -388 0
-13 32 -37 389 0
-37 48 -389 390 0
48 -65 -390 391 0
-65 70 -90 -391 0
-7 48 52 -81 0
-21 -34 53 392 0
53 -65 90 -392 0
-36 55 88 393 0
-36 55 88 -393 0
33 43 57 394 0
57 -63 -394 395 0
-63 66 -395 396 0
66 84 -86 -396 0
-22 42 71 397 0
-22 42 71 -397 0
4 5 -10 398 0
-10 -24 -398 399 0
-24 32 -399 400 0
32 -34 -84 -400 0
46 88 401 402 0
46 88 401 -402 0
46 88 -401 402 0
46 88 -401 -402 0
-28 39 403 404 0
-28 39 403 -404 0
-28 39 -403 404 0
-28 39 -403 -404 0
11 -26 -31 405 0
-31 -35 -405 406 0
-35 48 -406 407 0
48 53 -407 408 0
53 -66 -408 409 0
-66 70 -409 410 0
70 -92 96 -410 0
13 -20 -88 411 0
13 -20 -88 -411 0
31 -41 -52 -89 0
30 32 50 412 0
50 86 -412 413 0
86 -89 96 -413 0
16 -47 414 415 0
16 -47 414 -415 0
16 -47 -414 415 0
16 -47 -414 -415 0
5 55 58 416 0
58 -85 91 -416 0
-41 44 -54 417 0
-41 44 -54 -417 0
28 29 60 418 0
28 29 60 -418 0
27 33 48 419 0
48 63 -419 420 0
63 70 -75 -420 0
-10 -27 -87 421 0
-10 -27 -87 -421 0
19 24 33 422 0
33 -45 -422 423 0
-45 -86 89 -423 0
7 9 -30 424 0
-30 -32 -424 425 0
-32 41 -425 426 0
41 -47 -426 427 0
-47 -51 -100 -427 0
50 55 -70 -96 0
8 35 -70 -99 0
24 80 428 429 0
24 80 428 -429 0
24 80 -428 429 0
24 80 -428 -429 0
-47 -57 -80 430 0
-80 87 -93 -430 0
13 16 -23 431 0
-23 29 -431 432 0
29 81 -85 -432 0
32 46 47 -82 0
-22 -26 54 433 0
54 55 -433 434 0
55 -62 -434 435 0
-62 -67 -73 -435 0
9 11 28 436 0
28 -41 -436 437 0
-41 48 -437 438 0
48 -49 -438 439 0
-49 -86 -439 440 0
-86 95 -98 -440 0
-4 20 -31 441 0
-31 -63 -441 442 0
-63 -69 -82 -442 0
-3 48 55 443 0
55 -56 94 -443 0
-17 -37 42 444 0
42 -49 -444 445 0
-49 -64 -445 446 0
-64 -68 -73 -446 0
40 -66 -80 447 0
-80 -84 -447 448 0
-84 -88 98 -448 0
51 58 -69 449 0
-69 -98 100 -449 0
28 -41 -68 450 0
-68 -71 84 -450 0
3 -9 -33 451 0
-33 80 -451 452 0
80 -85 -452 453 0
-85 92 93 -453 0
-11 37 -47 454 0
-47 67 -454 455 0
67 69 -455 456 0
69 82 -456 457 0
82 83 99 -457 0
62 75 78 458 0
78 80 -94 -458 0
-10 -51 -74 -80 0
-9 -20 63 459 0
63 64 -459 460 0
64 -70 91 -460 0
22 60 86 -99 0
22 -43 51 461 0
51 73 79 -461 0
-15 -34 47 462 0
47 -88 -95 -462 0
79 -92 463 464 0
79 -92 463 -464 0
79 -92 -463 464 0
79 -92 -463 -464 0
-2 -17 -20 465 0
-20 -41 -465 466 0
-41 -53 -466 467 0
-53 77 -467 468 0
77 78 -89 -468 0
19 51 -56 469 0
-56 63 -469 470 0
63 90 -91 -470 0
-28 31 -40 471 0
-40 -43 -471 472 0
-43 -79 -472 473 0
-79 -84 -473 474 0
-84 90 91 -474 0
22 -37 41 99 0
6 -7 -10 475 0
-10 -88 93 -475 0
-12 22 75 -97 0
9 21 45 476 0
45 -46 -476 477 0
-46 63 -477 478 0
63 64 -478 479 0
64 75 -479 480 0
75 83 -480 481 0
83 -91 -98 -481 0
9 -15 -59 482 0
-59 63 -482 483 0
63 -71 -483 484 0
-71 74 -75 -484 0
-16 -20 -32 485 0
-32 -75 91 -485 0
10 94 486 487 0
10 94 486 -487 0
10 94 -486 487 0
10 94 -486 -487 0
56 -69 86 488 0
56 -69 86 -488 0
21 -52 -61 93 0
3 -65 -67 73 0
29 30 -39 489 0
-39 -62 -68 -489 0
23 40 50 490 0
50 51 -490 491 0
51 -54 -491 492 0
-54 -64 -492 493 0
-64 79 -90 -493 0
-32 35 -41 494 0
-41 44 99 -494 0
-37 53 93 495 0
-37 53 93 -495 0
43 -50 59 496 0
59 -66 -496 497 0
-66 90 99 -497 0
-10 28 498 499 0
-10 28 498 -499 0
-10 28 -498 499 0
-10 28 -498 -499 0
19 -23 -45 500 0
-45 48 -500 501 0
48 54 -501 502 0
54 -61 -502 503 0
-61 -64 -503 504 0
-64 85 -93 -504 0
-12 25 -30 505 0
-30 -46 -505 506 0
-46 49 -506 507 0
49 -52 -82 -507 0
-18 -27 38 508 0
38 -39 -508 509 0
-39 -57 -509 510 0
-57 -97 100 -510 0
-4 6 45 511 0
45 84 96 -511 0
49 76 512 513 0
49 76 512 -513 0
49 76 -512 513 0
49 76 -512 -513 0
-13 -39 94 514 0
-13 -39 94 -514 0
-32 47 -84 515 0
-32 47 -84 -515 0
6 -12 -54 516 0
6 -12 -54 -516 0
-3 -22 -31 517 0
-31 51 -517 518 0
51 -65 -77 -518 0
7 -45 -59 519 0
-59 65 -519 520 0
65 72 99 -520 0
6 31 -99 521 0
6 31 -99 -521 0
6 16 -44 522 0
-44 60 -522 523 0
60 75 -523 524 0
75 -81 -524 525 0
-81 -91 98 -525 0
23 -24 -46 70 0
-36 -47 -52 526 0
-36 -47 -52 -526 0
-30 -85 527 528 0
-30 -85 527 -528 0
-30 -85 -527 528 0
-30 -85 -527 -528 0
26 -39 -54 529 0
26 -39 -54 -529 0
2 -10 -28 530 0
-28 31 -530 531 0
31 -41 -531 532 0
-41 56 74 -532 0
1 -38 -50 533 0
-50 -56 -533 534 0
-56 79 -534 535 0
79 84 100 -535 0
41 81 86 536 0
41 81 86 -536 0
-19 33 -35 -55 0
41 -42 54 99 0
7 23 25 537 0
25 -47 -537 538 0
-47 50 -538 539 0
50 52 -73 -539 0
30 -35 63 540 0
63 74 -540 541 0
74 -76 -80 -541 0
-8 -47 51 542 0
51 -68 81 -542 0
-5 25 -35 -73 0
-24 -33 39 -93 0
-9 33 35 88 0
43 56 -76 543 0
-76 -85 -543 544 0
-85 -92 96 -544 0
-18 -47 -58 545 0
-58 -75 -545 546 0
-75 78 -93 -546 0
-36 -68 547 548 0
-36 -68 547 -548 0
-36 -68 -547 548 0
-36 -68 -547 -548 0
-5 -16 27 549 0
27 -69 -549 550 0
-69 89 -550 551 0
89 -94 97 -551 0
-15 20 -33 552 0
-33 51 -552 553 0
51 -61 -553 554 0
-61 65 -554 555 0
65 68 -555 556 0
68 -70 -79 -556 0
54 59 66 557 0
54 59 66 -557 0
60 98 558 559 0
60 98 558 -559 0
60 98 -558 559 0
60 98 -558 -559 0
-9 -26 -63 560 0
-63 73 -560 561 0
73 91 -561 562 0
91 98 99 -562 0
42 50 53 563 0
53 60 -563 564 0
60 -93 96 -564 0
5 24 -30 565 0
-30 -47 -565 566 0
-47 -49 -88 -566 0
33 -50 -55 567 0
-55 58 -567 568 0
58 72 -83 -568 0
-23 41 44 569 0
44 50 -66 -569 0
-28 -57 -83 98 0
-13 48 -50 570 0
-50 83 94 -570 0
36 57 58 99 0
38 53 65 571 0
65 87 96 -571 0
52 -55 97 572 0
52 -55 97 -572 0
20 -37 -81 -85 0
-16 -20 -32 89 0
-11 13 -14 573 0
-14 24 -573 574 0
24 -28 -574 575 0
-28 -31 -575 576 0
-31 35 -576 577 0
35 -71 93 -577 0
34 58 61 578 0
61 64 -67 -578 0
73 -84 -95 579 0
73 -84 -95 -579 0
-1 6 10 580 0
10 -22 -580 581 0
-22 24 -581 582 0
24 28 -582 583 0
28 74 -583 584 0
74 92 -97 -584 0
-7 29 33 585 0
33 45 -62 -585 0
-46 -65 82 586 0
-46 -65 82 -586 0
-26 75 85 -94 0
10 71 75 -78 0
1 7 10 587 0
10 12 -587 588 0
12 -26 -42 -588 0
-4 -9 -22 589 0
-22 75 -90 -589 0
-7 -49 -54 590 0
-54 -61 -80 -590 0
-1 -24 86 591 0
86 91 -94 -591 0
13 75 -77 -80 0
32 56 -66 592 0
32 56 -66 -592 0
6 7 -22 593 0
-22 60 68 -593 0
4 20 594 595 0
4 20 594 -595 0
4 20 -594 595 0
4 20 -594 -595 0
74 -83 596 597 0
74 -83 596 -597 0
74 -83 -596 597 0
74 -83 -596 -597 0
-18 65 -77 598 0
-77 81 -598 599 0
81 83 -599 600 0
83 -86 94 -600 0
-40 75 81 601 0
-40 75 81 -601 0
-7 -11 -15 602 0
-15 42 -66 -602 0
-44 -54 65 66 0
-1 -18 25 603 0
25 30 -603 604 0
30 -35 -604 605 0
-35 45 -605 606 0
45 -66 79 -606 0
10 19 62 96 0
-3 9 -15 607 0
-15 35 -607 608 0
35 82 -608 609 0
82 -84 -609 610 0
-84 -89 -610 611 0
-89 93 99 -611 0
36 53 -71 612 0
-71 -84 -612 613 0
-84 88 100 -613 0
-21 -41 -44 -60 0
-8 -38 -47 -67 0
26 37 -38 614 0
-38 -48 -614 615 0
-48 -51 -615 616 0
-51 54 -616 617 0
54 -62 -64 -617 0
-21 36 58 618 0
58 -81 -85 -618 0
19 -29 -37 619 0
-37 -42 -619 620 0
-42 -74 87 -620 0
-12 -65 -67 91 0
-4 17 621 622 0
-4 17 621 -622 0
-4 17 -621 622 0
-4 17 -621 -622 0
-20 24 -76 -79 0
16 21 80 623 0
16 21 80 -623 0
-28 -68 93 624 0
-28 -68 93 -624 0
-3 8 74 625 0
-3 8 74 -625 0
40 74 -88 626 0
40 74 -88 -626 0
20 21 -33 627 0
-33 -63 -627 628 0
-63 -75 92 -628 0
-3 17 20 629 0
20 22 -629 630 0
22 54 -630 631 0
54 92 -98 -631 0
6 26 29 632 0
29 30 -632 633 0
30 -62 -633 634 0
-62 64 -634 635 0
64 -84 88 -635 0
16 -86 636 637 0
16 -86 636 -637 0
16 -86 -636 637 0
16 -86 -636 -637 0
3 14 -60 638 0
-60 80 -94 -638 0
-19 22 -71 639 0
-19 22 -71 -639 0
35 -87 640 641 0
35 -87 640 -641 0
35 -87 -640 641 0
35 -87 -640 -641 0
11 13 15 642 0
15 50 -642 643 0
50 -59 -643 644 0
-59 62 -644 645 0
62 82 83 -645 0
9 14 -56 92 0
38 -47 -59 646 0
-59 -87 -100 -646 0
-11 70 81 647 0
-11 70 81 -647 0
-20 29 39 648 0
39 -69 75 -648 0
3 -9 65 649 0
65 84 85 -649 0
6 -8 -41 650 0
-41 -61 -650 651 0
-61 72 -651 652 0
72 -77 -652 653 0
-77 -96 98 -653 0
-5 7 43 654 0
-5 7 43 -654 0
-13 -35 -45 655 0
-45 88 90 -655 0
-8 -31 -46 656 0
-8 -31 -46 -656 0
-3 25 64 657 0
-3 25 64 -657 0
-22 -24 -47 658 0
-47 49 -50 -658 0
28 66 -67 659 0
-67 -81 91 -659 0
-9 40 67 660 0
67 76 -660 661 0
76 -88 -92 -661 0
5 61 -64 662 0
5 61 -64 -662 0
51 62 73 76 0
30 -44 48 663 0
48 -59 -64 -663 0
13 -20 -29 664 0
-29 -46 -51 -664 0
13 69 70 665 0
70 -86 -665 666 0
-86 90 92 -666 0
-4 15 16 667 0
16 -31 -667 668 0
-31 -34 -668 669 0
-34 61 98 -669 0
18 -33 -42 -79 0
-14 26 -27 670 0
-27 93 96 -670 0
-18 20 21 671 0
21 -23 -671 672 0
-23 25 -672 673 0
25 26 -673 674 0
26 -28 -674 675 0
-28 -33 93 -675 0
-13 79 -85 -97 0
-71 92 676 677 0
-71 92 676 -677 0
-71 92 -676 677 0
-71 92 -676 -677 0
-22 -31 43 678 0
43 54 -72 -678 0
-6 -56 64 679 0
64 65 -679 680 0
65 84 99 -680 0
17 -35 70 681 0
17 -35 70 -681 0
9 -49 54 682 0
54 71 -99 -682 0
-3 -19 -27 683 0
-27 55 92 -683 0
3 -7 -46 684 0
-46 52 -684 685 0
52 74 88 -685 0
7 -18 29 686 0
29 -68 -75 -686 0
-41 -46 93 687 0
-41 -46 93 -687 0
10 -24 -27 688 0
-27 37 -688 689 0
37 63 95 -689 0
3 12 76 690 0
76 83 -690 691 0
83 92 -691 692 0
92 94 99 -692 0
-30 -39 50 693 0
50 51 -693 694 0
51 58 -694 695 0
58 -68 -95 -695 0
-22 41 -46 696 0
-46 57 -696 697 0
57 -74 -697 698 0
-74 79 -99 -698 0
-16 57 61 -90 0
-30 -43 62 699 0
62 -74 99 -699 0
-45 64 97 700 0
-45 64 97 -700 0
42 52 66 701 0
66 -72 -701 702 0
-72 75 -702 703 0
75 93 -95 -703 0
-31 51 80 704 0
-31 51 80 -704 0
13 14 -19 705 0
-19 -33 -705 706 0
-33 41 -706 707 0
41 -43 -93 -707 0
55 97 708 709 0
55 97 708 -709 0
55 97 -708 709 0
55 97 -708 -709 0
-1 5 -37 48 0
20 -35 -40 710 0
-40 -44 -710 711 0
-44 57 -711 712 0
57 62 -712 713 0
62 -75 79 -713 0
22 -29 -97 714 0
22 -29 -97 -714 0
5 40 -50 715 0
-50 -61 -98 -715 0
39 41 59 716 0
59 95 -98 -716 0
25 -56 717 718 0
25 -56 717 -718 0
25 -56 -717 718 0
25 -56 -717 -718 0
14 64 67 719 0
67 -94 100 -719 0
-50 53 -63 720 0
-50 53 -63 -720 0
37 38 69 721 0
37 38 69 -721 0
36 42 57 722 0
57 72 -722 723 0
72 79 -84 -723 0
-19 -36 -96 724 0
-19 -36 -96 -724 0
-9 28 33 725 0
33 42 -725 726 0
42 -54 -726 727 0
-54 -95 98 -727 0
-5 16 18 728 0
18 -39 -728 729 0
-39 -41 -729 730 0
-41 50 -730 731 0
50 -56 -60 -731 0
-8 59 64 -79 0
17 44 -79 732 0
17 44 -79 -732 0
-2 33 89 733 0
-2 33 89 -733 0
-56 -66 -89 96 0
22 25 -32 734 0
-32 38 -734 735 0
38 90 -94 -735 0
41 55 56 -91 0
4 -7 -31 736 0
-31 -35 -736 737 0
-35 63 -737 738 0
63 64 -738 739 0
64 -71 -739 740 0
-71 -76 -82 -740 0
18 20 37 741 0
37 -50 -741 742 0
-50 57 -742 743 0
57 -58 -95 -743 0
3 -13 29 744 0
29 -40 -744 745 0
-40 -72 -745 746 0
-72 -78 -91 -746 0
-12 57 64 -65 0
7 -26 -46 747 0
-46 51 -747 748 0
51 -58 -748 749 0
-58 -73 -749 750 0
-73 -77 -82 -750 0
-7 9 49 751 0
49 -75 -751 752 0
-75 -89 -752 753 0
-89 -93 -97 -753 0
60 67 -78 754 0
60 67 -78 -754 0
1 2 37 755 0
37 -50 -755 756 0
-50 -77 -756 757 0
-77 -80 93 -757 0
8 12 -18 758 0
-18 -42 -758 759 0
-42 89 -94 -759 0
-3 -20 46 760 0
46 -56 -760 761 0
-56 76 -761 762 0
76 78 -762 763 0
78 91 92 -763 0
71 84 87 89 0
-19 -60 -83 -89 0
-8 -18 -29 764 0
-29 72 -764 765 0
72 73 -765 766 0
73 -79 100 -766 0
31 69 95 767 0
31 69 95 -767 0
-4 31 -52 768 0
-52 60 -768 769 0
60 82 88 -769 0
-1 -24 -43 770 0
-43 56 -97 -770 0
-11 -26 -29 771 0
-29 -50 -771 772 0
-50 -62 -772 773 0
-62 86 -773 774 0
86 87 -98 -774 0
28 60 -65 775 0
-65 72 -775 776 0
72 99 -100 -776 0
8 -37 40 777 0
40 -49 -777 778 0
-49 -52 -778 779 0
-52 -88 -779 780 0
-88 -93 -780 781 0
-93 99 100 -781 0
2 31 -46 50 0
-6 15 -16 782 0
-16 -19 -97 -782 0
-21 31 84 783 0
-21 31 84 -783 0
-7 -46 784 785 0
-7 -46 784 -785 0
-7 -46 -784 785 0
-7 -46 -784 -785 0
18 30 54 786 0
54 -55 -786 787 0
-55 72 -787 788 0
72 73 -788 789 0
73 84 -789 790 0
84 92 -100 -790 0
18 -24 -68 791 0
-68 72 -791 792 0
72 -80 -792 793 0
-80 83 -84 -793 0
3 -25 -29 794 0
-29 -41 -794 795 0
-41 -84 100 -795 0
2 65 -78 95 0
30 -61 -70 796 0
30 -61 -70 -796 0
12 -74 -76 82 0
38 39 -48 797 0
-48 -71 -77 -797 0
8 32 49 798 0
49 59 -798 799 0
59 60 -799 800 0
60 -63 -800 801 0
-63 -73 -801 802 0
-73 88 -99 -802 0
2 -41 44 803 0
44 -50 53 -803 0
8 -46 62 804 0
8 -46 62 -804 0
52 -59 68 805 0
68 -75 99 -805 0
-2 -19 37 806 0
-2 -19 37 -806 0
28 -32 -54 807 0
-54 57 -807 808 0
57 63 -808 809 0
63 -70 -809 810 0
-70 -73 94 -810 0
-6 9 -21 811 0
-21 34 -811 812 0
34 -39 -812 813 0
-39 -55 -813 814 0
-55 58 -814 815 0
58 -61 -91 -815 0
5 -27 -36 816 0
-36 47 -816 817 0
47 -48 -66 -817 0
-13 15 54 93 0
3 58 85 818 0
3 58 85 -818 0
-22 -48 819 820 0
-22 -48 819 -820 0
-22 -48 -819 820 0
-22 -48 -819 -820 0
-41 56 -93 821 0
-41 56 -93 -821 0
15 -21 -63 822 0
15 -21 -63 -822 0
8 -12 -31 823 0
-31 -40 -823 824 0
-40 60 -824 825 0
60 -74 -86 -825 0
-8 16 -54 826 0
-54 -68 -826 827 0
-68 74 81 -827 0
-2 15 40 828 0
-2 15 40 -828 0
15 25 -53 829 0
-53 69 -829 830 0
69 84 -830 831 0
84 -90 -100 -831 0
32 -33 -55 79 0
-45 -56 -61 832 0
-45 -56 -61 -832 0
-39 -94 833 834 0
-39 -94 833 -834 0
-39 -94 -833 834 0
-39 -94 -833 -834 0
35 -48 -63 835 0
35 -48 -63 -835 0
9 11 -19 836 0
-19 -37 -836 837 0
-37 40 -837 838 0
40 -50 -838 839 0
-50 65 83 -839 0
10 -47 -59 840 0
-59 -65 -840 841 0
-65 88 93 -841 0
50 90 95 842 0
50 90 95 -842 0
8 -28 42 843 0
42 -44 -64 -843 0
50 -51 63 844 0
50 -51 63 -844 0
16 32 34 845 0
34 -56 -845 846 0
-56 59 -846 847 0
59 61 -82 -847 0
39 -44 72 848 0
72 83 -848 849 0
83 -85 -89 -849 0
-17 -56 60 850 0
60 -77 90 -850 0
-2 -14 34 851 0
34 -44 -82 -851 0
-33 -42 48 852 0
-33 -42 48 -852 0
-1 5 -18 853 0
-18 42 -853 854 0
42 44 97 -854 0
-2 52 65 855 0
65 -85 -94 -855 0
-27 -56 -67 856 0
-67 -84 87 -856 0
-3 6 -45 -77 0
-14 -25 36 857 0
36 -78 98 -857 0
-24 29 -42 858 0
-42 60 -858 859 0
60 -70 -859 860 0
-70 74 -860 861 0
74 77 -861 862 0
77 -79 -88 -862 0
7 63 68 75 0
7 8 69 863 0
7 8 69 -863 0
-2 5 -18 864 0
-18 -35 -864 865 0
-35 -72 -865 866 0
-72 82 100 -866 0
51 59 62 69 0
14 33 -39 867 0
-39 -56 -867 868 0
-56 -58 -97 -868 0
42 -59 -64 869 0
-64 67 -869 870 0
67 81 -92 -870 0
7 -32 50 871 0
50 53 -871 872 0
53 59 -75 -872 0
3 -37 -66 -92 0
8 -22 57 873 0
57 -59 92 -873 0
5 45 66 67 0
6 47 62 874 0
62 74 96 -874 0
61 -64 875 876 0
61 -64 875 -876 0
61 -64 -875 876 0
61 -64 -875 -876 0
29 -46 -90 -94 0
2 -25 -29 877 0
-29 -41 98 -877 0
-20 22 -23 878 0
-23 33 -878 879 0
33 -37 -879 880 0
-37 -40 -880 881 0
-40 44 -80 -881 0
-4 43 67 882 0
67 70 -882 883 0
70 73 -76 -883 0
1 -6 82 -93 0
-10 15 19 884 0
19 -31 -884 885 0
-31 33 -885 886 0
33 37 83 -886 0
-16 38 42 887 0
42 54 -71 -887 0
-3 -55 -74 91 0
-35 84 94 888 0
-35 84 94 -888 0
19 80 84 -87 0
10 16 19 889 0
19 21 -889 890 0
21 -35 -51 -890 0
-13 -18 -31 891 0
-31 84 -99 -891 0
-3 -16 -58 892 0
-58 -63 -892 893 0
-63 -70 -89 -893 0
-10 -33 95 100 0
22 84 -86 -89 0
41 65 -75 894 0
41 65 -75 -894 0
15 16 -31 895 0
-31 69 77 -895 0
13 29 896 897 0
13 29 896 -897 0
13 29 -896 897 0
13 29 -896 -897 0
3 83 -92 898 0
3 83 -92 -898 0
-27 74 -86 899 0
-86 90 -899 900 0
90 92 -95 -900 0
-49 84 90 901 0
-49 84 90 -901 0
-16 -20 -24 902 0
-24 51 -75 -902 0
-53 -63 74 75 0
5 -10 -27 903 0
-27 34 -903 904 0
34 39 -904 905 0
39 -44 -905 906 0
-44 54 -906 907 0
54 -75 88 -907 0
2 8 19 908 0
19 28 71 -908 0
9 -12 18 909 0
18 -24 -909 910 0
-24 44 -910 911 0
44 91 -911 912 0
91 -93 -98 -912 0
45 62 -80 913 0
-80 -93 97 -913 0
-30 -50 -53 -69 0
-17 -47 -56 -76 0
35 46 -47 914 0
-47 -57 -914 915 0
-57 -60 -915 916 0
-60 63 -916 917 0
63 -71 -73 -917 0
-30 45 67 918 0
67 -90 -94 -918 0
28 -38 -46 919 0
-46 -51 -919 920 0
-51 -83 96 -920 0
-21 -74 -76 100 0
-13 26 921 922 0
-13 26 921 -922 0
-13 26 -921 922 0
-13 26 -921 -922 0
-29 33 -85 -88 0
2 25 30 89 0
-37 -77 923 924 0
-37 -77 923 -924 0
-37 -77 -923 924 0
-37 -77 -923 -924 0
-12 17 83 925 0
-12 17 83 -925 0
7 49 83 -97 0
1 -7 29 926 0
29 30 -926 927 0
30 -42 -927 928 0
-42 -72 -84 -928 0
-12 26 29 929 0
29 31 63 -929 0
15 35 38 930 0
38 39 -930 931 0
39 -71 -931 932 0
-71 73 -932 933 0
73 -93 97 -933 0
-3 25 -95 934 0
-3 25 -95 -934 0
12 23 -69 89 0
-28 31 -80 935 0
-28 31 -80 -935 0
44 -96 936 937 0
44 -96 936 -937 0
44 -96 -936 937 0
44 -96 -936 -937 0
1 20 22 938 0
22 24 -938 939 0
24 59 -939 940 0
59 -68 -940 941 0
-68 71 -941 942 0
71 91 92 -942 0
18 23 -65 943 0
18 23 -65 -943 0
-9 -19 944 945 0
-9 -19 944 -945 0
-9 -19 -944 945 0
-9 -19 -944 -945 0
47 -56 -68 -96 0
-20 79 90 946 0
-20 79 90 -946 0
-29 38 48 947 0
48 -78 84 -947 0
-5 7 12 948 0
12 -18 -948 949 0
-18 74 -949 950 0
74 93 94 -950 0
15 -17 -50 951 0
-50 -70 -951 952 0
-70 81 -86 -952 0
-14 16 52 953 0
-14 16 52 -953 0
-22 -44 -54 954 0
-54 97 99 -954 0
-17 -40 -55 955 0
-17 -40 -55 -955 0
-12 34 73 956 0
-12 34 73 -956 0
-31 -33 -56 957 0
-56 58 -59 -957 0
-1 37 75 958 0
75 -76 -958 959 0
-76 -90 100 -959 0
-18 49 76 960 0
76 85 -97 -960 0
14 70 -73 961 0
14 70 -73 -961 0
60 71 82 85 0
39 -53 57 962 0
57 -68 -73 -962 0
1 22 -29 963 0
-29 -38 -963 964 0
-38 -55 -60 -964 0
7 22 78 965 0
78 79 -965 966 0
79 -95 99 -966 0
-13 24 25 967 0
25 -40 -967 968 0
-40 -43 70 -968 0
2 5 27 969 0
27 -42 -969 970 0
-42 -51 -88 -970 0
2 -23 35 -36 0
-6 -27 29 971 0
29 30 -971 972 0
30 -32 -972 973 0
-32 34 -973 974 0
34 35 -974 975 0
35 -37 -42 -975 0
1 -22 88 -94 0
8 -31 -40 976 0
-40 52 -976 977 0
52 63 -81 -977 0
-15 -65 73 978 0
73 74 93 -978 0
-8 26 -44 79 0
1 18 -58 979 0
-58 63 80 -979 0
-12 -28 -36 64 0
12 -16 -55 980 0
-55 61 -980 981 0
61 83 97 -981 0
2 16 -27 982 0
-27 38 -982 983 0
38 -77 -84 -983 0
4 -50 -55 984 0
4 -50 -55 -984 0
1 3 8 985 0
8 19 -985 986 0
19 -33 -986 987 0
-33 -36 -987 988 0
-36 46 72 -988 0
-4 12 21 989 0
21 85 92 -989 0
-8 -39 -48 990 0
-48 59 -990 991 0
59 60 -991 992 0
60 67 -77 -992 0
-31 50 -55 993 0
-55 66 -993 994 0
66 -83 88 -994 0
8 -25 66 995 0
66 70 -99 -995 0
6 -39 -52 996 0
-52 71 -83 -996 0
2 -4 -54 73 0
51 61 75 997 0
75 -81 84 -997 0
-2 -40 60 89 0
22 23 -28 998 0
-28 -42 -998 999 0
-42 50 -52 -999 0
6 34 1000 1001 0
6 34 1000 -1001 0
6 34 -1000 1001 0
6 34 -1000 -1001 0
-10 14 -46 57 0
-6 29 -44 1002 0
-44 -49 -1002 1003 0
-49 -53 -1003 1004 0
-53 66 -1004 1005 0
66 71 -1005 1006 0
71 -84 88 -1006 0
-7 31 -38 1007 0
-7 31 -38 -1007 0
4 -7 14 1008 0
14 49 -1008 1009 0
49 -59 -70 -1009 0
48 50 68 1010 0
48 50 68 -1010 0
-3 9 34 -65 0
23 73 76 1011 0
23 73 76 -1011 0
-59 62 -72 1012 0
-59 62 -72 -1012 0
46 47 78 1013 0
46 47 78 -1013 0
-5 45 51 1014 0
51 66 -1014 1015 0
66 81 -1015 1016 0
81 88 -93 -1016 0
-4 7 -28 -45 0
-18 37 42 1017 0
42 51 -63 -1017 0
-14 25 27 1018 0
27 -48 -1018 1019 0
-48 -50 -1019 1020 0
-50 59 -1020 1021 0
59 -65 -69 -1021 0
-17 68 73 -88 0
26 53 -88 1022 0
26 53 -88 -1022 0
5 -11 42 98 0
-3 -65 -75 -98 0
31 34 -41 1023 0
-41 47 99 -1023 0
50 64 65 -100 0
-4 13 -16 1024 0
-16 -40 -1024 1025 0
-40 -44 -1025 1026 0
-44 72 -1026 1027 0
72 73 -1027 1028 0
73 -80 -1028 1029 0
-80 -85 -91 -1029 0
27 29 46 1030 0
46 -59 -1030 1031 0
-59 66 -67 -1031 0
12 -22 38 1032 0
38 -49 -1032 1033 0
-49 -81 -1033 1034 0
-81 -87 -100 -1034 0
-21 66 73 -74 0
-2 -6 16 1035 0
16 -35 -1035 1036 0
-35 -55 -1036 1037 0
-55 60 -1037 1038 0
60 -67 -1038 1039 0
-67 -82 -1039 1040 0
-82 -86 -91 -1040 0
-16 18 58 1041 0
58 -84 -98 -1041 0
2 69 76 -87 0
-3 10 11 1042 0
11 46 -1042 1043 0
46 -59 -1043 1044 0
-59 -86 -89 -1044 0
1 17 21 1045 0
21 -27 -1045 1046 0
-27 -51 98 -1046 0
-12 -29 55 1047 0
55 -65 -1047 1048 0
-65 85 -1048 1049 0
85 87 100 -1049 0
80 93 96 98 0
9 -28 -69 1050 0
-69 -92 -98 -1050 0
4 -17 -27 1051 0
-27 -38 -1051 1052 0
-38 81 -1052 1053 0
81 82 -88 -1053 0
40 78 1054 1055 0
40 78 1054 -1055 0
40 78 -1054 1055 0
40 78 -1054 -1055 0
-6 -13 40 1056 0
40 -61 -1056 1057 0
-61 69 -1057 1058 0
69 91 97 -1058 0
-10 -33 -52 65 0
-7 97 1059 1060 0
-7 97 1059 -1060 0
-7 97 -1059 1060 0
-7 97 -1059 -1060 0
8 -9 -20 1061 0
-20 -35 -1061 1062 0
-35 -38 -1062 1063 0
-38 -59 -1063 1064 0
-59 -71 -1064 1065 0
-71 95 96 -1065 0
-2 8 9 1066 0
9 37 -1066 1067 0
37 69 -1067 1068 0
69 -74 81 -1068 0
17 -46 49 1069 0
49 -58 -1069 1070 0
-58 -61 -97 -1070 0
-6 11 40 1071 0
40 -55 59 -1071 0
-15 24 -25 -28 0
-30 40 93 1072 0
-30 40 93 -1072 0
1 -9 -16 -55 0
27 39 63 1073 0
63 -64 -1073 1074 0
-64 81 -1074 1075 0
81 82 93 -1075 0
9 27 -33 1076 0
-33 -77 -1076 1077 0
-77 81 -1077 1078 0
81 -89 -1078 1079 0
-89 92 -93 -1079 0
12 -34 -38 1080 0
-38 -50 -93 -1080 0
4 28 1081 1082 0
4 28 1081 -1082 0
4 28 -1081 1082 0
4 28 -1081 -1082 0
11 74 -87 1083 0
11 74 -87 -1083 0
39 -70 -79 1084 0
39 -70 -79 -1084 0
21 -83 -85 91 0
-8 47 48 1085 0
48 -57 -1085 1086 0
-57 -80 -86 -1086 0
17 41 58 1087 0
58 68 -1087 1088 0
68 69 -1088 1089 0
69 -72 -1089 1090 0
-72 -82 97 -1090 0
11 -50 53 1091 0
53 -59 62 -1091 0
8 17 -55 71 0
61 -68 77 -84 0
3 -11 -28 46 0
37 -41 -63 1092 0
-63 66 -1092 1093 0
66 72 -1093 1094 0
72 -79 -82 -1094 0
-15 18 -30 1095 0
-30 43 -1095 1096 0
43 -48 -1096 1097 0
-48 -64 -1097 1098 0
-64 67 -1098 1099 0
67 -70 -100 -1099 0
2 14 -36 1100 0
-36 -45 -1100 1101 0
-45 56 -1101 1102 0
56 -57 -75 -1102 0
-22 24 63 1103 0
-22 24 63 -1103 0
12 67 94 1104 0
12 67 94 -1104 0
-2 -31 -57 1105 0
-2 -31 -57 -1105 0
-50 65 1106 1107 0
-50 65 1106 -1107 0
-50 65 -1106 1107 0
-50 65 -1106 -1107 0
24 -30 -72 1108 0
24 -30 -72 -1108 0
17 -21 -40 1109 0
-40 -49 -1109 1110 0
-49 69 -1110 1111 0
69 -83 -95 -1111 0
-17 25 -63 1112 0
-63 -77 -1112 1113 0
-77 83 90 -1113 0
-11 24 49 1114 0
-11 24 49 -1114 0
-9 16 1115 1116 0
-9 16 1115 -1116 0
-9 16 -1115 1116 0
-9 16 -1115 -1116 0
24 34 -62 1117 0
-62 78 -1117 1118 0
78 93 -99 -1118 0
41 -42 -64 88 0
-3 -54 -65 -70 0
44 -57 -72 1119 0
44 -57 -72 -1119 0
2 18 20 1120 0
20 -28 -1120 1121 0
-28 -46 -1121 1122 0
-46 49 -1122 1123 0
49 -59 -1123 1124 0
-59 74 92 -1124 0
4 19 -56 1125 0
-56 -68 -1125 1126 0
-68 -74 97 -1126 0
59 99 1127 1128 0
59 99 1127 -1128 0
59 99 -1127 1128 0
59 99 -1127 -1128 0
17 -37 51 1129 0
51 -53 -73 -1129 0
59 -60 72 1130 0
59 -60 72 -1130 0
25 41 43 1131 0
43 -65 -1131 1132 0
-65 68 -1132 1133 0
68 70 -91 -1133 0
48 -53 81 1134 0
81 92 -1134 1135 0
92 -94 -98 -1135 0
-26 -65 69 1136 0
69 -86 99 -1136 0
-11 -23 43 1137 0
43 -53 -91 -1137 0
6 -42 -51 57 0
-3 -10 14 1138 0
14 -27 -1138 1139 0
-27 51 53 -1139 0
-11 61 74 -94 0
-36 -65 -76 1140 0
-76 -93 96 -1140 0
7 -12 15 1141 0
15 -54 -86 -1141 0
-23 -34 45 -87 0
-33 38 -51 1142 0
-51 69 -1142 1143 0
69 -79 -1143 1144 0
-79 83 -1144 1145 0
83 86 -1145 1146 0
86 -88 -97 -1146 0
16 72 77 84 0
9 16 17 78 0
-11 14 -27 1147 0
-27 -44 -1147 1148 0
-44 -81 91 -1148 0
-6 60 68 1149 0
68 71 78 -1149 0
-1 23 42 1150 0
42 -48 -1150 1151 0
-48 -65 -67 -1151 0
51 -68 -73 1152 0
-73 76 90 -1152 0
-1 16 -41 1153 0
-41 59 -1153 1154 0
59 62 -1154 1155 0
62 68 -84 -1155 0
1 12 -46 -75 0
17 -31 66 -68 0
5 14 54 1156 0
54 75 76 -1156 0
15 56 71 83 0
-4 70 -73 1157 0
-4 70 -73 -1157 0
7 38 -55 -99 0
11 -34 -38 -50 0
-29 31 -32 1158 0
-32 42 -1158 1159 0
42 -46 -1159 1160 0
-46 -49 -1160 1161 0
-49 53 -89 -1161 0
-2 -13 52 1162 0
52 76 -1162 1163 0
76 79 -1163 1164 0
79 82 -85 -1164 0
10 -15 91 1165 0
10 -15 91 -1165 0
-19 24 28 1166 0
28 -40 -1166 1167 0
-40 42 -1167 1168 0
42 46 92 -1168 0
-25 47 51 1169 0
51 63 -80 -1169 0
3 -12 -64 1170 0
-64 -83 100 -1170 0
-44 93 1171 1172 0
-44 93 1171 -1172 0
-44 93 -1171 1172 0
-44 93 -1171 -1172 0
28 89 93 -96 0
-8 19 25 1173 0
25 28 -1173 1174 0
28 30 -1174 1175 0
30 -44 -60 -1175 0
-22 -27 -40 93 0
4 9 -12 1176 0
-12 -25 -1176 1177 0
-25 -67 -1177 1178 0
-67 -72 -1178 1179 0
-72 -79 -98 -1179 0
-19 -42 1180 1181 0
-19 -42 1180 -1181 0
-19 -42 -1180 1181 0
-19 -42 -1180 -1181 0
31 93 -95 -98 0
50 74 -84 1182 0
50 74 -84 -1182 0
24 25 -40 1183 0
-40 78 86 -1183 0
-1 22 38 1184 0
-1 22 38 -1184 0
1 -4 12 92 0
-36 83 -95 99 0
-58 93 99 1185 0
-58 93 99 -1185 0
-25 -29 -33 1186 0
-33 60 -84 -1186 0
-62 -72 83 84 0
14 -19 -36 1187 0
-36 43 -1187 1188 0
43 48 -1188 1189 0
48 -53 -1189 1190 0
-53 63 -1190 1191 0
63 -84 97 -1191 0
-2 -7 11 1192 0
11 17 -1192 1193 0
17 28 -1193 1194 0
28 37 80 -1194 0
-2 6 18 1195 0
18 -21 -1195 1196 0
-21 27 -1196 1197 0
27 -33 -1197 1198 0
-33 53 100 -1198 0
54 71 -89 1199 0
54 71 -89 -1199 0
-39 -59 -62 -78 0
-26 -56 -65 -85 0
-3 44 55 1200 0
55 -56 -1200 1201 0
-56 -66 -1201 1202 0
-66 -69 -1202 1203 0
-69 72 -1203 1204 0
72 -80 -82 -1204 0
5 -39 54 1205 0
54 76 -99 -1205 0
9 37 -47 1206 0
-47 -55 -1206 1207 0
-55 -60 -92 -1207 0
-30 -83 -85 1208 0
-30 -83 -85 -1208 0
-22 35 1209 1210 0
-22 35 1209 -1210 0
-22 35 -1209 1210 0
-22 35 -1209 -1210 0
-38 42 -94 -97 0
11 34 39 98 0
-46 -86 1211 1212 0
-46 -86 1211 -1212 0
-46 -86 -1211 1212 0
-46 -86 -1211 -1212 0
-6 -21 26 92 0
16 58 92 1213 0
16 58 92 -1213 0
10 -16 38 1214 0
38 39 -1214 1215 0
39 -51 -1215 1216 0
-51 -81 -93 -1216 0
-2 6 -21 1217 0
-21 35 -1217 1218 0
35 38 -1218 1219 0
38 40 72 -1219 0
-4 24 44 1220 0
44 47 -1220 1221 0
47 48 -1221 1222 0
48 -80 82 -1222 0
-12 34 1223 1224 0
-12 34 1223 -1224 0
-12 34 -1223 1224 0
-12 34 -1223 -1224 0
21 32 -78 98 0
-5 -37 40 -89 0
1 53 1225 1226 0
1 53 1225 -1226 0
1 53 -1225 1226 0
1 53 -1225 -1226 0
10 29 31 1227 0
31 33 -1227 1228 0
33 68 -1228 1229 0
68 -77 -1229 1230 0
-77 80 100 -1230 0
27 32 -74 1231 0
27 32 -74 -1231 0
-5 -18 -28 1232 0
-5 -18 -28 -1232 0
56 -65 -77 1233 0
56 -65 -77 -1233 0
-29 88 99 1234 0
-29 88 99 -1234 0
2 3 -38 1235 0
-38 47 -1235 1236 0
47 57 -1236 1237 0
57 -87 93 -1237 0
-14 16 21 1238 0
21 -27 83 -1238 0
24 -26 -59 1239 0
-59 -79 -1239 1240 0
-79 90 -95 -1240 0
6 8 -23 1241 0
-23 25 61 -1241 0
-31 -53 -63 1242 0
-31 -53 -63 -1242 0
-26 -49 -64 1243 0
-26 -49 -64 -1243 0
-8 -21 43 82 0
9 -40 -42 1244 0
-42 -65 -1244 1245 0
-65 67 -68 -1245 0
-6 -10 46 1246 0
46 84 -1246 1247 0
84 -85 -99 -1247 0
-27 58 85 94 0
23 79 -82 1248 0
23 79 -82 -1248 0
69 80 91 94 0
48 -62 66 1249 0
66 -77 -82 -1249 0
-4 8 10 1250 0
10 31 -1250 1251 0
31 -38 -1251 1252 0
-38 -47 -1252 1253 0
-47 -64 -69 -1253 0
16 31 87 88 0
-22 33 34 1254 0
34 -49 -1254 1255 0
-49 -52 79 -1255 0
11 14 36 1256 0
36 -51 -1256 1257 0
-51 -60 -97 -1257 0
11 -32 44 -45 0
-3 -15 -36 1258 0
-36 38 -1258 1259 0
38 39 -1259 1260 0
39 -41 -1260 1261 0
-41 43 -1261 1262 0
43 44 -1262 1263 0
44 -46 -51 -1263 0
10 -31 97 1264 0
10 -31 97 -1264 0
2 17 -40 1265 0
-40 -49 -1265 1266 0
-49 61 -1266 1267 0
61 72 -90 -1267 0
-24 -74 82 83 0
-17 35 -53 88 0
10 27 -67 1268 0
-67 72 89 -1268 0
6 -21 -37 1269 0
-37 -45 73 -1269 0
21 -25 -64 1270 0
-64 70 92 -1270 0
11 25 -36 1271 0
-36 47 -1271 1272 0
47 -86 -93 -1272 0
13 -59 -64 1273 0
13 -59 -64 -1273 0
1 10 12 1274 0
12 17 -1274 1275 0
17 28 -1275 1276 0
28 -42 -1276 1277 0
-42 -45 -1277 1278 0
-45 55 81 -1278 0
-13 21 30 94 0
-17 -48 -57 1279 0
-57 68 -1279 1280 0
68 69 -1280 1281 0
69 76 -86 -1281 0
-8 -40 59 1282 0
59 -64 -1282 1283 0
-64 75 -1283 1284 0
75 -92 97 -1284 0
17 -34 75 79 0
15 -48 -61 1285 0
-61 80 -92 -1285 0
11 -13 -63 82 0
60 70 84 1286 0
84 -90 93 -1286 0
-11 -49 69 98 0
31 32 -37 1287 0
-37 -51 -1287 1288 0
-51 59 -61 -1288 0
15 43 1289 1290 0
15 43 1289 -1290 0
15 43 -1289 1290 0
15 43 -1289 -1290 0
-19 23 -55 66 0
-15 38 -53 1291 0
-53 -58 -1291 1292 0
-58 -62 -1292 1293 0
-62 75 -1293 1294 0
75 80 -1294 1295 0
80 -93 97 -1295 0
-16 40 -47 1296 0
-16 40 -47 -1296 0
13 -16 23 1297 0
23 58 -1297 1298 0
58 -68 -79 -1298 0
57 59 77 1299 0
57 59 77 -1299 0
-12 18 43 -74 0
32 82 85 1300 0
32 82 85 -1300 0
-68 71 -81 1301 0
-68 71 -81 -1301 0
-2 55 56 87 0
-14 54 60 1302 0
60 75 -1302 1303 0
75 90 97 -1303 0
-13 16 -37 -54 0
-27 46 51 1304 0
51 60 -72 -1304 0
-23 34 36 1305 0
36 -57 -1305 1306 0
-57 -59 -1306 1307 0
-59 68 -1307 1308 0
68 -74 -78 -1308 0
-26 77 82 -97 0
7 35 62 -97 0
-7 14 -20 51 0
8 -12 -74 -84 0
-9 40 43 1309 0
43 -50 56 -1309 0
59 73 74 1310 0
59 73 74 -1310 0
-13 22 -25 1311 0
-25 -49 -1311 1312 0
-49 -53 -1312 1313 0
-53 81 -1313 1314 0
81 82 -1314 1315 0
82 -89 -1315 1316 0
-89 -94 -100 -1316 0
-9 36 38 1317 0
38 55 -1317 1318 0
55 -68 -1318 1319 0
-68 75 -76 -1319 0
21 -31 47 1320 0
47 -58 -1320 1321 0
-58 -90 -96 -1321 0
-30 75 82 -83 0
-7 -11 -15 1322 0
-15 25 -1322 1323 0
25 -44 -1323 1324 0
-44 -64 -1324 1325 0
-64 69 -1325 1326 0
69 -76 -1326 1327 0
-76 -91 -1327 1328 0
-91 -95 -100 -1328 0
-25 27 67 -93 0
11 78 85 -96 0
7 -12 19 1329 0
19 20 -1329 1330 0
20 55 -1330 1331 0
55 -68 -1331 1332 0
-68 -95 -98 -1332 0
9 10 26 1333 0
26 30 -1333 1334 0
30 -36 -60 -1334 0
2 5 7 1335 0
7 -21 -1335 1336 0
-21 -38 -1336 1337 0
-38 64 -1337 1338 0
64 -74 -1338 1339 0
-74 94 96 -1339 0
-1 -7 89 1340 0
-1 -7 89 -1340 0
18 -37 -78 1341 0
18 -37 -78 -1341 0
13 -26 -36 1342 0
-36 -47 -1342 1343 0
-47 90 -1343 1344 0
90 91 -97 -1344 0
6 49 87 1345 0
6 49 87 -1345 0
-15 -22 49 1346 0
49 -70 -1346 1347 0
-70 78 100 -1347 0
6 -19 -42 1348 0
-42 -61 74 -1348 0
4 5 -16 1349 0
4 5 -16 -1349 0
17 -18 -29 1350 0
-29 -44 -1350 1351 0
-44 -47 -1351 1352 0
-47 -68 -80 -1352 0
-6 -11 17 1353 0
17 18 -1353 1354 0
18 46 -1354 1355 0
46 78 -1355 1356 0
78 -83 90 -1356 0
26 -55 58 1357 0
58 -67 -70 -1357 0
-15 20 49 1358 0
49 -64 68 -1358 0
2 -24 33 1359 0
33 -34 -37 -1359 0
-39 49 1360 1361 0
-39 49 1360 -1361 0
-39 49 -1360 1361 0
-39 49 -1360 -1361 0
2 10 -18 1362 0
-18 -25 -64 -1362 0
